set I := i1 i2 i3 i4;
set J := j1 j2 j3;
set K := k1 k2 k3 k4 k5;
set L := l1 l2 l3 l4;

param A :=  
j1 15.3  
j2 16  
j3 16.2  
;

param B :=  
j1 0.0155  
j2 0.0144  
j3 0.0142  
;

param C :=  
j1 0.0055  
j2 0.0048  
j3 0.0051  
;

param D :=  
j1 0.0028  
j2 0.0033  
j3 0.0033  
;

param O :=  
j1 0.0015  
j2 0.0016  
j3 0.0016  
;

param G :=  
j1 7  
j2 6.9  
j3 7.2  
;

param H :=  
j1 2.62  
j2 2.26  
j3 2.55  
;

param E :=  
i1 4586  
i2 5395  
i3 4902  
i4 4862  
;

param F :=  
l1 491  
l2 512  
l3 487  
l4 450  
;

param P : j1 j2 j3 :=  
i1  885  757  865  
i2  861  793  909  
i3  807  798   817  
i4  853  863  839  
;

param Q : j1 j2 j3 :=  
l1  313  313  333  
l2  364  312  371  
l3  372  370  327  
l4  341  340  314  
;

param d : j1 j2 j3 :=  
k1  300  300  300  
k2  300  300  300  
k3  300  300  300  
k4  300  300  300  
k5  300  300  300  
;

param r : j1 j2 j3 :=  
k1  100  100  100  
k2  100  100  100  
k3  100  100  100  
k4  100  100  100  
k5  100  100  100  
;

param alpha :=  
j1 0.32  
j2 0.32  
j3 0.31  
;

param M : j1 j2 j3 :=  
i1  0.3  0.9  0.7  
i2  0.3  0.5  0.2  
i3  0.2  0.3  0.3  
i4  0.8  0.9  0.6  
;

param N : j1 j2 j3 :=  
l1 0.3  0.7  0.2  
l2 0.7  0.4  1  
l3 0.1  0.1  0.5  
l4 0.1  0.6 1  
;

param t_ik :=  
[i1, *] k1 60.7  k2 96.4 k3 73.9 k4 99.2  k5 23.8  
[i2, *] k1 32.3  k2 71.3 k3 30.8 k4 51.7  k5 31.9  
[i3, *] k1 45.3  k2 85.1 k3 41.7 k4 68.6  k5 25.7  
[i4, *] k1 30.0  k2 50.7 k3 78.9 k4 87.0  k5 29.5  
;

param t_kl :=
[k1, *] l1 39.2  l2 30.7  l3 50.4  l4 85  
[k2, *] l1 55.3  l2 15.1  l3 83.6  l4 124.8  
[k3, *] l1 39.8  l2 84.1  l3 74.4  l4 62.6  
[k4, *] l1 20.2  l2 77.3  l3 95.5  l4 96.3 
[k5, *] l1 68.7  l2 59.7  l3 14.3  l4 58.5  
;

param t_li :=
[l1, *] i1 89.2  i2 43.4  i3 61.8  i4 69.2  
[l2, *] i1 82.7  i2 63.0  i3 74.6  i4 35.7  
[l3, *] i1 14.4  i2 44.9  i3 34.4  i4 35.4  
[l4, *] i1 46.0  i2 55.6  i3 39.7  i4 88.0  
;

param t_l :=  
l1 40.8  
l2 86.1  
l3 76.5  
l4 63.4  
;
